p edge 20 30
e 1 3
e 1 6
e 1 9
e 1 13
e 1 18
e 2 5
e 2 7
e 2 18
e 2 19
e 3 17
e 3 20
e 4 6
e 4 18
e 5 10
e 5 13
e 5 15
e 6 8
e 6 15
e 6 16
e 7 8
e 8 9
e 8 12
e 10 14
e 10 15
e 11 13
e 11 16
e 11 18
e 13 14
e 13 18
e 15 17
